Version identifier: 22.1.0.0 | 2022-03-09 | 1a383f8ce
CPXPARAM_Threads                                 1
CPXPARAM_MIP_Strategy_VariableSelect             3
CPXPARAM_TimeLimit                               596.25665738400005
1 of 1 MIP starts provided solutions.
MIP start 'm1' defined initial solution with objective 281.0000.
Tried aggregator 1 time.
MIP Presolve eliminated 13 rows and 0 columns.
MIP Presolve modified 183 coefficients.
Reduced MIP has 1813 rows, 7800 columns, and 127220 nonzeros.
Reduced MIP has 7800 binaries, 0 generals, 0 SOSs, and 0 indicators.
Presolve time = 0.18 sec. (234.04 ticks)
Probing time = 0.03 sec. (21.00 ticks)
Tried aggregator 1 time.
Detecting symmetries...
MIP Presolve modified 14 coefficients.
Reduced MIP has 1813 rows, 7800 columns, and 127516 nonzeros.
Reduced MIP has 7800 binaries, 0 generals, 0 SOSs, and 0 indicators.
Presolve time = 0.14 sec. (174.86 ticks)
Probing time = 0.03 sec. (21.04 ticks)
Clique table members: 1281.
MIP emphasis: balance optimality and feasibility.
MIP search method: dynamic search.
Parallel mode: none, using 1 thread.
Root relaxation solution time = 7.78 sec. (9356.22 ticks)

        Nodes                                         Cuts/
   Node  Left     Objective  IInf  Best Integer    Best Bound    ItCnt     Gap

*     0+    0                          281.0000    45150.0000              --- 
      0     0      300.0000  1296      281.0000      300.0000    21233    6.76%
      0     0      300.0000   607      281.0000       Cuts: 4    45395    6.76%
      0     0      300.0000   467      281.0000   ZeroHalf: 1    48127    6.76%
      0     0      300.0000   829      281.0000   ZeroHalf: 2    65656    6.76%
      0     0      300.0000   689      281.0000      Cuts: 12    95446    6.76%
Heuristic still looking.
Detecting symmetries...
      0     2      300.0000   381      281.0000      300.0000    95446    6.76%
Elapsed time = 146.48 sec. (159109.04 ticks, tree = 0.01 MB, solutions = 1)
      1     3      300.0000   510      281.0000      300.0000   105903    6.76%
      2     4      300.0000   699      281.0000      300.0000   111750    6.76%
      3     5      300.0000   786      281.0000      300.0000   119449    6.76%
      4     6      300.0000   472      281.0000      300.0000   119733    6.76%
      5     7      300.0000   460      281.0000      300.0000   120299    6.76%
      6     8      300.0000   627      281.0000      300.0000   129613    6.76%
      7     9      300.0000   450      281.0000      300.0000   130532    6.76%
      8    10      300.0000   443      281.0000      300.0000   135323    6.76%
      9    11      300.0000   544      281.0000      300.0000   140847    6.76%
     10    12      300.0000   457      281.0000      300.0000   141503    6.76%
Elapsed time = 166.52 sec. (180318.28 ticks, tree = 0.12 MB, solutions = 1)
     11    13      300.0000   596      281.0000      300.0000   145518    6.76%
     14    16      300.0000   469      281.0000      300.0000   146668    6.76%
     17    19      300.0000   458      281.0000      300.0000   147925    6.76%
     19    21      300.0000   603      281.0000      300.0000   154633    6.76%
     20    22      300.0000   452      281.0000      300.0000   154785    6.76%
     22    24      300.0000   550      281.0000      300.0000   167522    6.76%
     24    26      300.0000   599      281.0000      300.0000   174099    6.76%
     26    28      300.0000   914      281.0000      300.0000   175913    6.76%
     28    30      300.0000   635      281.0000      300.0000   188732    6.76%
     29    31      300.0000   624      281.0000      300.0000   196032    6.76%
Elapsed time = 186.87 sec. (202165.56 ticks, tree = 0.45 MB, solutions = 1)
     31    32      299.7857   666      281.0000      300.0000   222014    6.76%
     32    33      300.0000   669      281.0000      300.0000   228889    6.76%
     34    35      300.0000   840      281.0000      300.0000   231004    6.76%
     37    38      300.0000   779      281.0000      300.0000   231575    6.76%
     38    38      299.0732   816      281.0000      300.0000   234031    6.76%
     40    40      300.0000   775      281.0000      300.0000   234064    6.76%
     42    42      300.0000   676      281.0000      300.0000   235501    6.76%
     44    44      300.0000   658      281.0000      300.0000   237018    6.76%
     46    46      300.0000   579      281.0000      300.0000   238758    6.76%
     48    47      299.2834   671      281.0000      300.0000   241171    6.76%
Elapsed time = 202.60 sec. (219653.58 ticks, tree = 0.72 MB, solutions = 1)
     50    48      298.7402   646      281.0000      300.0000   249219    6.76%
     52    49      299.0556   732      281.0000      300.0000   251217    6.76%
     54    51      300.0000   624      281.0000      300.0000   252577    6.76%
     56    52      300.0000   580      281.0000      300.0000   254607    6.76%
     58    53      300.0000   581      281.0000      300.0000   257094    6.76%
     60    55      300.0000   644      281.0000      300.0000   259309    6.76%
     62    56      299.2755   685      281.0000      300.0000   262357    6.76%
     63    57      300.0000   530      281.0000      300.0000   268311    6.76%
     65    58      299.1276   705      281.0000      300.0000   271211    6.76%
     67    60      300.0000   627      281.0000      300.0000   276836    6.76%
Elapsed time = 217.38 sec. (236292.86 ticks, tree = 0.93 MB, solutions = 1)
     69    62      300.0000   529      281.0000      300.0000   279168    6.76%
     71    64      300.0000   506      281.0000      300.0000   281904    6.76%
     73    65      299.3552   591      281.0000      300.0000   289855    6.76%
     75    67      300.0000   494      281.0000      300.0000   291648    6.76%
     77    68      300.0000   541      281.0000      300.0000   294051    6.76%
     80    70      300.0000   534      281.0000      300.0000   295445    6.76%
     82    71      300.0000   534      281.0000      300.0000   297692    6.76%
     84    72      300.0000   627      281.0000      300.0000   301005    6.76%
     87    74      300.0000   584      281.0000      300.0000   303407    6.76%
     89    75      300.0000   584      281.0000      300.0000   305418    6.76%
Elapsed time = 228.76 sec. (249701.88 ticks, tree = 1.18 MB, solutions = 1)
     91    76      299.3396   668      281.0000      300.0000   308026    6.76%
     93    77      300.0000   608      281.0000      300.0000   310685    6.76%
     96    80      300.0000   441      281.0000      300.0000   313797    6.76%
     98    81      299.5581   617      281.0000      300.0000   315771    6.76%
    100    83      300.0000   471      281.0000      300.0000   316418    6.76%
    102    84      300.0000   443      281.0000      300.0000   318840    6.76%
    104    85      300.0000   452      281.0000      300.0000   321241    6.76%
    106    86      300.0000   484      281.0000      300.0000   324372    6.76%
    108    87      299.5333   626      281.0000      300.0000   327147    6.76%
    110    89      300.0000   446      281.0000      300.0000   328691    6.76%
Elapsed time = 239.50 sec. (262507.02 ticks, tree = 1.42 MB, solutions = 1)
    112    91      300.0000   401      281.0000      300.0000   331987    6.76%
    113    92      300.0000   413      281.0000      300.0000   336711    6.76%
    115    93      300.0000   471      281.0000      300.0000   340378    6.76%
    117    94      300.0000   438      281.0000      300.0000   342704    6.76%
    119    95      299.3704   652      281.0000      300.0000   345438    6.76%
    121    96      299.0000   638      281.0000      300.0000   348080    6.76%
    123    97      299.0061   572      281.0000      300.0000   350505    6.76%
    127   100      299.4765   591      281.0000      300.0000   353281    6.76%
    128   100      299.4247   554      281.0000      300.0000   358266    6.76%
    129   101      299.0000   458      281.0000      300.0000   363749    6.76%
Elapsed time = 251.25 sec. (275829.66 ticks, tree = 1.56 MB, solutions = 1)
    131   103      299.0000   462      281.0000      300.0000   365270    6.76%
    134   106      299.0000   483      281.0000      300.0000   366813    6.76%
    135   107      299.0000   545      281.0000      300.0000   368875    6.76%
    137   108      299.0000   524      281.0000      300.0000   371062    6.76%
    139   110      299.0000   474      281.0000      300.0000   373882    6.76%
    140   111      299.0000   500      281.0000      300.0000   374764    6.76%
    142   112      298.4865   549      281.0000      300.0000   377274    6.76%
    144   113      298.3043   590      281.0000      300.0000   379682    6.76%
    147   115      298.0000   599      281.0000      300.0000   381936    6.76%
    149   117      299.0000   501      281.0000      300.0000   384469    6.76%
Elapsed time = 260.63 sec. (286783.76 ticks, tree = 1.83 MB, solutions = 1)
    151   118      297.7308   517      281.0000      300.0000   386667    6.76%
    153   119      297.9337   578      281.0000      300.0000   389205    6.76%
    156   121      297.9880   579      281.0000      300.0000   392236    6.76%
    158   123      299.0000   491      281.0000      300.0000   394177    6.76%
    160   124      299.0000   437      281.0000      300.0000   397694    6.76%
    162   126      299.0000   422      281.0000      300.0000   399685    6.76%
    164   128      299.0000   509      281.0000      300.0000   401882    6.76%
    166   128      297.7062   520      281.0000      300.0000   405781    6.76%
    169   130      299.0000   448      281.0000      300.0000   408697    6.76%
    171   132      299.0000   393      281.0000      300.0000   410483    6.76%
Elapsed time = 270.63 sec. (298618.43 ticks, tree = 2.09 MB, solutions = 1)
    173   133      299.0000   482      281.0000      300.0000   413008    6.76%
    175   134      297.6209   512      281.0000      300.0000   415659    6.76%
    178   136      299.0000   434      281.0000      300.0000   418256    6.76%
    181   137      297.8061   553      281.0000      300.0000   422071    6.76%
    184   139      297.6226   554      281.0000      300.0000   423935    6.76%
    187   142      299.0000   343      281.0000      300.0000   425492    6.76%
    190   142      297.0000   506      281.0000      300.0000   428220    6.76%
    194   146      297.0000   517      281.0000      300.0000   429869    6.76%
    197   149      297.0000   492      281.0000      300.0000   431553    6.76%
    208   157      295.9231   506      281.0000      300.0000   439695    6.76%
Elapsed time = 282.69 sec. (312758.44 ticks, tree = 2.52 MB, solutions = 1)
    220   166      296.0000   435      281.0000      300.0000   445319    6.76%
    237   177      295.0000   377      281.0000      300.0000   451393    6.76%
    253   184      295.0000   374      281.0000      300.0000   456972    6.76%
    278   186    infeasible            281.0000      300.0000   462480    6.76%
    303   189      295.0000   317      281.0000      300.0000   468981    6.76%
    325   201      295.0000   268      281.0000      300.0000   473909    6.76%
    359   206      294.0000   267      281.0000      300.0000   478835    6.76%
    371   209      300.0000   781      281.0000      300.0000   486637    6.76%
    378   216      300.0000   799      281.0000      300.0000   490454    6.76%
    385   223      300.0000   708      281.0000      300.0000   497063    6.76%
Elapsed time = 321.19 sec. (354209.96 ticks, tree = 3.66 MB, solutions = 1)
    392   230      300.0000   679      281.0000      300.0000   504578    6.76%
    399   237      300.0000   692      281.0000      300.0000   511586    6.76%
    403   241      300.0000   602      281.0000      300.0000   516314    6.76%
    410   247      300.0000   566      281.0000      300.0000   523677    6.76%
    416   253      300.0000   465      281.0000      300.0000   530987    6.76%
    423   258      300.0000   486      281.0000      300.0000   539536    6.76%
    430   263      300.0000   465      281.0000      300.0000   548978    6.76%
    437   269      300.0000   418      281.0000      300.0000   558110    6.76%
    442   273      298.4603   653      281.0000      300.0000   564733    6.76%
    450   280      300.0000   391      281.0000      300.0000   572193    6.76%
Elapsed time = 358.57 sec. (397230.10 ticks, tree = 4.66 MB, solutions = 1)
    460   286      298.5963   488      281.0000      300.0000   580401    6.76%
    469   293      300.0000   380      281.0000      300.0000   590580    6.76%
    480   299      300.0000   347      281.0000      300.0000   599859    6.76%
    493   308      298.6344   462      281.0000      300.0000   609836    6.76%
    504   315      300.0000   319      281.0000      300.0000   618492    6.76%
    517   323      298.8049   353      281.0000      300.0000   628435    6.76%
    531   331      298.0000   385      281.0000      300.0000   636059    6.76%
    545   340      296.8333   325      281.0000      300.0000   645004    6.76%
    565   351      296.0000   331      281.0000      300.0000   651479    6.76%
    592   355      299.8333   355      281.0000      300.0000   659497    6.76%
Elapsed time = 397.44 sec. (438324.81 ticks, tree = 5.98 MB, solutions = 1)
    607   363      298.0000   442      281.0000      300.0000   667664    6.76%
    620   371      297.0000   435      281.0000      300.0000   675645    6.76%
    634   381      296.0000   235      281.0000      300.0000   683774    6.76%
    656   390      296.0000   252      281.0000      300.0000   688809    6.76%
    680   396      298.8667   401      281.0000      300.0000   696586    6.76%
    697   406      296.0000   443      281.0000      300.0000   704679    6.76%
    714   411    infeasible            281.0000      300.0000   711547    6.76%
    735   417      298.5556   425      281.0000      300.0000   718946    6.76%
    754   424      296.0000   357      281.0000      300.0000   726082    6.76%
    770   429      296.0000   308      281.0000      300.0000   734159    6.76%
Elapsed time = 435.48 sec. (477891.01 ticks, tree = 7.24 MB, solutions = 1)
    792   439      295.0000   226      281.0000      300.0000   741344    6.76%
    817   446      295.0000   269      281.0000      300.0000   747888    6.76%
    844   445    infeasible            281.0000      300.0000   756042    6.76%
    877   446      295.0000   284      281.0000      300.0000   762451    6.76%
    906   445    infeasible            281.0000      300.0000   769292    6.76%
    932   454      295.0000   280      281.0000      300.0000   774732    6.76%
    955   460      298.0000   488      281.0000      300.0000   782847    6.76%
    971   474      296.0000   322      281.0000      300.0000   787817    6.76%
    990   481      298.0000   405      281.0000      300.0000   795050    6.76%
   1003   488      298.0000   435      281.0000      300.0000   801546    6.76%
Elapsed time = 474.23 sec. (517241.46 ticks, tree = 8.26 MB, solutions = 1)
   1020   497      297.0000   380      281.0000      300.0000   808434    6.76%
   1039   500      298.0000   493      281.0000      300.0000   816983    6.76%
   1054   507      296.0000   480      281.0000      300.0000   823766    6.76%
   1081   510      296.0000   384      281.0000      300.0000   830982    6.76%
   1104   528      295.0000   348      281.0000      300.0000   834552    6.76%
   1124   534      298.0000   429      281.0000      300.0000   841824    6.76%
   1140   545      296.0000   325      281.0000      300.0000   849186    6.76%
   1164   556      296.0000   335      281.0000      300.0000   854607    6.76%
   1189   569      296.0000   244      281.0000      300.0000   860078    6.76%
   1216   586      295.0000   256      281.0000      300.0000   865527    6.76%
Elapsed time = 512.60 sec. (556598.77 ticks, tree = 10.02 MB, solutions = 1)
   1248   594      295.0000   301      281.0000      300.0000   868426    6.76%
   1283   598      298.0000   526      281.0000      300.0000   873621    6.76%
   1303   607    infeasible            281.0000      300.0000   878852    6.76%
   1324   611      296.0000   347      281.0000      300.0000   885866    6.76%
   1354   617      298.3846   368      281.0000      300.0000   892411    6.76%
   1368   628      298.0000   254      281.0000      300.0000   899251    6.76%
   1389   633      296.0000   384      281.0000      300.0000   908204    6.76%
Starting limited solution polishing.
   1417   640      296.0000   257      281.0000      300.0000   914599    6.76%
   1440   648      298.0000   410      281.0000      300.0000   922362    6.76%
   1453   659      296.0000   438      281.0000      300.0000   929405    6.76%
Elapsed time = 551.98 sec. (596721.62 ticks, tree = 11.31 MB, solutions = 1)
   1480   665      296.0000   340      281.0000      300.0000   935327    6.76%
   1497   671      298.0000   417      281.0000      300.0000   943178    6.76%
   1509   679      297.5000   412      281.0000      300.0000   951668    6.76%

Clique cuts applied:  37
Zero-half cuts applied:  19

Root node processing (before b&c):
  Real time             =  146.23 sec. (158910.06 ticks)
Sequential b&c:
  Real time             =  450.03 sec. (479343.73 ticks)
                          ------------
Total (root+branch&cut) =  596.26 sec. (638253.79 ticks)
Primal:	281
Dual:	300
Status:	Feasible
Time:	596.35
Sequence:
	20
	10
	12
	6
	8
	14
	5
	12
	9
	5
	14
	10
	12
	6
	18
	4
	18
	5
	17
	5
	15
	5
	12
	10
	18
	0
	20
	5
	12
	10
	18
	0
	20
	5
	17
	5
	12
	9
	12
	5
	14
	8
	15
	5
	12
	10
	18
	0
	20
	5
	12
	8
	20
	1
	13
	8
	5
	14
	5
	16
	5
	13
	8
	12
	5
	14
	8
	19
	1
	18
	10
	12
	5
	17
	6
	5
	12
	10
	20
	0
	18
	5
	17
	5
	20
	3
	18
	5
	4
	18
	6
	17
	5
	5
	16
	7
	20
	2
	18
	5
	15
	4
	18
	5
	12
	9
	14
	5
	10
	12
	5
	10
	12
	7
	16
	5
	5
	17
	7
	12
	5
	16
	5
	18
	3
	20
	1
	18
	8
	12
	7
	8
	12
	5
	8
	12
	7
	12
	5
	20
	2
	20
	5
	12
	9
	5
	12
	10
	20
	0
	18
	5
	12
	8
	18
	1
	18
	8
	14
	6
	14
	8
	5
	12
	8
	18
	1
	20
	9
	12
	5
	18
	4
	19
	5
	14
	8
	20
	0
	18
	8
	12
	5
	20
	0
	20
	8
	12
	5
	20
	3
	18
	5
	17
	5
	12
	10
	13
	5
	18
	4
	18
	5
	16
	7
	18
	4
	18
	5
	0
	20
	5
	14
	5
	8
	14
	5
	13
	10
	18
	1
	18
	9
	14
	5
	5
	17
	6
	20
	2
	18
	5
	16
	7
	20
	2
	18
	5
	17
	5
	20
	2
	18
	7
	12
	5
	20
	2
	20
	5
	16
	7
	18
	4
	18
	5
	14
	8
	12
	6
	16
	5
	20
	2
	20
	5
	13
	8
	18
	1
	18
	9
	14
	5
	8
	14
	5
	5
	12
	11
	20
